4 
5  53 
6  10 23 38 51 
7  04 19 34 49 
8  04 19 34 49 
9  04 19 34 49 
10  04 21 36 51 
11  06 21 36 51 
12  06 21 36 51 
13  06 21 36 51 
14  06 21 36 51 
15  06 21 36 51 
16  06 21 36 51 
17  06 21 36 51 
18  06 21 36 51 
19  06 21 36 51 
20  06 21 36 51 
21  06 21 36 51 
22  06 21 38 53 
23  08 19 32 
0 
